1
1000
196
250 12
251 9
252 9
253 8
254 8
255 5
256 4
257 6
258 5
259 9
260 5
261 6
262 6
263 7
264 1
265 2
266 7
267 8
268 2
269 4
270 6
271 3
272 2
273 6
274 5
275 3
276 6
277 3
278 4
279 5
280 3
281 4
282 4
283 3
284 5
285 3
286 3
287 1
288 3
290 5
291 4
292 7
293 5
294 3
295 2
296 2
297 3
299 1
300 1
301 5
302 2
303 4
304 3
305 1
306 3
307 2
308 1
309 2
310 1
311 3
312 2
313 2
314 2
315 6
316 1
317 2
318 5
320 4
321 2
322 2
323 2
325 2
326 1
327 2
328 3
329 3
330 3
331 2
332 2
334 2
340 2
346 1
349 1
350 2
351 5
352 1
353 1
354 4
355 1
356 1
357 4
358 3
359 1
360 1
361 1
362 4
363 3
364 4
365 1
368 1
370 2
371 1
372 1
373 1
375 1
376 4
377 2
378 1
380 1
382 1
383 2
384 4
385 3
386 3
389 1
390 1
392 3
393 1
394 1
395 3
396 1
398 1
399 1
400 1
401 1
403 1
405 1
406 1
407 1
410 2
411 2
412 3
414 1
415 1
416 2
417 2
419 2
420 1
421 2
422 3
423 1
424 1
425 2
426 5
428 1
429 4
430 1
431 3
432 1
434 1
435 1
436 1
437 1
438 1
439 1
440 1
441 2
442 1
445 4
446 3
447 1
448 1
450 3
451 2
452 1
453 3
454 1
455 1
456 2
457 1
458 2
459 1
465 1
466 1
468 1
469 1
470 1
473 2
476 2
477 2
479 1
480 1
481 1
482 1
484 1
486 1
488 1
491 4
492 1
493 1
494 1
495 2
496 2
497 1
498 1
499 1
